(set-logic QF_UF)
(declare-fun car () Bool)
(declare-fun circuit () Bool)
(declare-fun clk () Bool)
(declare-fun prt () Bool)
(assert (or (not (= (or (not prt) (not car) (not (not clk))) (or (not prt) (not car) clk))) (not (or (not prt) (not car) (not (not clk)))) (or (not prt) (not car) clk)))
(assert (= (or (not prt) (not car) (not (not clk))) (or (not prt) (not car) clk)))
(assert (or (not prt) (not car) (not (not clk))))
(assert (not (or (not prt) (not car) clk)))
(check-sat)
(exit)
